c Sudoku solution
p cnf 729 0
136 0
152 0
169 0
214 0
266 0
292 0
329 0
376 0
412 0
332 0
465 0
471 0
494 0
588 0
618 0
625 0
651 0
672 0
686 0
693 0
759 0
762 0
542 0
784 0
174 0
815 0
235 0
821 0
922 0
882 0
524 0
531 0
944 0
834 0
664 0
354 0
955 0
978 0
738 0
649 0
637 0
397 0
198 0
228 0
961 0
791 0
775 0
595 0
279 0
873 0
987 0
743 0
899 0
996 0
577 0
489 0
433 0
426 0
519 0
556 0
563 0
716 0
727 0
117 0
311 0
123 0
913 0
939 0
846 0
253 0
368 0
247 0
141 0
345 0
185 0
281 0
383 0
448 0
457 0
858 0
867 0
